<instance format="XCSP3" type="CSP">
  <variables>
    <array id="x" size="[6]"> 0..26 </array>
  </variables>
  <constraints>
    <slide>
      <list collect="2"> x[] </list>
      <extension>
        <list> %0 %1 </list>
        <supports> (0,1)(0,2)(1,0)(1,2)(1,7)(2,0)(2,1)(2,5)(3,4)(3,5)(3,6)(4,3)(4,5)(4,22)(5,2)(5,3)(5,4)(6,3)(6,7)(6,8)(7,1)(7,6)(7,8)(8,6)(8,7)(8,17)(9,10)(9,11)(9,18)(10,9)(10,11)(10,16)(11,9)(11,10)(11,14)(12,13)(12,14)(12,15)(13,12)(13,14)(14,11)(14,12)(14,13)(15,12)(15,16)(15,17)(16,10)(16,15)(16,17)(17,8)(17,15)(17,16)(18,9)(18,19)(18,20)(19,18)(19,20)(19,25)(20,18)(20,19)(20,23)(21,22)(21,23)(21,24)(22,4)(22,21)(22,23)(23,20)(23,21)(23,22)(24,21)(24,25)(24,26)(25,19)(25,24)(25,26)(26,24)(26,25) </supports>
      </extension>
    </slide>
    <intension> in(x[0],set(1,2)) </intension>
  </constraints>
</instance>
